724805
724805
720988
720988
720988
720988
720988
720988
696918
696918
696519
696519
696519
696519
696519
696519
686692
686692
686692
686692
686692
686692
682336
679217
679217
671087
667121
659187
659187
659187
651740
651740
651740
651740
651740
650855
650855
650855
650855
650451
650451
650451
638409
638409
638409
637682
637682
637682
637682
637682
635402
635402
635402
635402
623619
623619
622309
622309
622309
622309
622309
622309
622309
621360
621360
619365
615178
615178
615178
615178
615178
615068
615068
601399
601399
601399
601399
601399
600429
600429
600429
599946
599946
599946
599946
594575
594575
594575
594575
587399
587399
587399
578728
578728
578728
578728
578728
578728
578728
576698
